\ LP format - for model browsing. Use MPS format to capture full model detail.
Minimize
  0 C0(0) + 0 C1(0) + 0 C2(0) + 0 C3(0) + 0 C4(0) + 0 C5(0) + 0 C6(0)
   + 0 C7(0) + 0 C8(0) + 0 C9(0) + 0 C10(0) + 0 C11(0) + 0 C12(0)
   + 0 C13(0) + 0 C14(0) + 0 C15(0) + 0 C16(0) + 0 C17(0) + 0 C18(0)
   + 0 C19(0) + 0 C20(0) + 0 C21(0) + 0 C22(0) + 0 C23(0) + 0 C24(0)
   + 0 C25(0) + 0 C26(0) + 0 C27(0) + 0 C28(0) + 0 C29(0) + 0 C30(0)
   + 0 C31(0) + 0 C32(0) + 0 C33(0) + 0 C34(0) + 0 C35(0) + 0 C36(0)
   + 0 C37(0) + 0 C38(0) + 0 C39(0) + 0 C40(0) + 0 C41(0) + 0 C42(0)
   + 0 C43(0) + 0 C44(0) + 0 C45(0) + 0 C46(0) + 0 C47(0) + 0 C48(0)
   + 0 C49(0) + 0 C50(0) + 0 C51(0) + 0 C52(0) + 0 C53(0) + 0 C54(0)
   + 0 C55(0) + 0 C56(0) + 0 C57(0) + 0 C58(0) + 0 C59(0) + 0 C60(0)
   + 0 C61(0) + 0 C62(0) + 0 C63(0) + 0 C64(0) + 0 C65(0) + 0 C66(0)
   + 0 C67(0) + 0 C68(0) + 0 C69(0) + 0 C70(0) + 0 C71(0) + 0 C72(0)
   + 0 C73(0) + 0 C74(0) + 0 C75(0) + 0 C76(0) + 0 C77(0) + 0 C78(0)
   + 0 C79(0) + 0 C80(0) + 0 C81(0) + 0 C82(0) + 0 C83(0) + 0 C84(0)
   + 0 C85(0) + 0 C86(0) + 0 C87(0) + 0 C88(0) + 0 C89(0) + 0 C90(0)
   + 0 C91(0) + 0 C92(0) + 0 C93(0) + 0 C94(0) + 0 C95(0) + 0 C96(0)
   + 0 C97(0) + 0 C98(0) + 0 C99(0) + 0 C100(0) + 0 C101(0) + 0 C102(0)
   + 0 C103(0) + 0 C104(0) + 0 C105(0) + 0 C106(0) + 0 C107(0) + 0 C108(0)
   + 0 C109(0) + 0 C110(0) + 0 C111(0) + 0 C112(0) + 0 C113(0) + 0 C114(0)
   + 0 C115(0) + 0 C116(0) + 0 C117(0) + 0 C118(0) + 0 C119(0) + 0 C120(0)
   + 0 C121(0) + 0 C122(0) + 0 C123(0) + 0 C124(0) + 0 C125(0) + 0 C126(0)
   + 0 C127(0) + 0 C128(0) + 0 C129(0) + 0 C130(0) + 0 C131(0) + 0 C132(0)
   + 0 C133(0) + 0 C134(0) + 0 C135(0) + 0 C136(0) + 0 C137(0) + 0 C138(0)
   + 0 C139(0) + 0 C140(0) + 0 C141(0) + 0 C142(0) + 0 C143(0) + 0 C144(0)
   + 0 C145(0) + 0 C146(0) + 0 C147(0) + 0 C148(0) + 0 C149(0) + 0 C150(0)
   + 0 C151(0) + 0 C152(0) + 0 C153(0) + 0 C154(0) + 0 C155(0) + 0 C156(0)
   + 0 C157(0) + 0 C158(0) + 0 C159(0) + 0 C160(0) + 0 C161(0) + 0 C162(0)
   + 0 C163(0) + 0 C164(0) + 0 C165(0) + 0 C166(0) + 0 C167(0) + 0 C168(0)
   + 0 C169(0) + 0 C170(0) + 0 C171(0) + 0 C172(0) + 0 C173(0) + 0 C174(0)
   + 0 C175(0) + 0 C176(0) + 0 C177(0) + 0 C178(0) + 0 C179(0) + 0 C180(0)
   + 0 C181(0) + 0 C182(0) + 0 C183(0) + 0 C184(0) + 0 C185(0) + 0 C186(0)
   + 0 C187(0) + 60 B188(7) + 41 B189(7) + 42 B190(9) + 41 B191(7)
   + 53 B192(9) + 32 B193(9) + 71 B194(9) + 75 B195(9) + 42 B196(9)
   + 58 B197(9) + 19 B198(9) + 32 B199(7) + 14 B200(9) + 53 B201(9)
   + 53 B202(7) + 54 B203(9) + 19 B204(9) + 58 B205(9) + 14 B208(7)
   + 35 B209(9) + 14 B210(9) + 35 B211(9) + 54 B212(9) + 37 B213(9)
   + 72 B214(9) + 19 B215(9) + 19 B216(9) + 37 B217(9) + 19 B219(9)
   + 19 B220(9) + 32 B221(9) + 32 B222(9) + 52 B223(9) + 49 B224(9)
   + 43 B225(9) + 33 B226(9) + 33 B227(9) + 49 B228(9) + 73 B229(7)
   + 14 B231(7) + 52 B232(7) + 19 B233(7) + 69 B234(7) + 19 B238(7)
   + 39 B239(9) + 39 B240(9) + 82 B241(9) + 34 B242(9) + 20 B243(9)
   + 56 B244(9) + 20 B245(9) + 60 B246(7) + 60 B247(9) + 61 B248(9)
   + 81 B249(7) + 99 B250(9) + 43 B251(9) + 73 B252(9) + 19 B253(9)
   + 43 B254(9) + 74 B255(7) + 81 B256(9) + 74 B257(9) + 95 B258(9)
   + 114 B259(9) + 61 B260(9) + 95 B261(9) + 43 B262(9) + 61 B263(9)
   + 61 B264(9) + 60 B265(9) + 79 B266(9) + 79 B267(9) + 92 B268(9)
   + 92 B269(9) + 112 B270(9) + 109 B271(9) + 79 B272(9) + 79 B273(9)
   + 93 B274(9) + 109 B275(9) + 61 B276(7) + 60 B277(7) + 74 B278(7)
   + 112 B279(7) + 79 B280(7) + 129 B281(7) + 19 B282(7) + 19 B284(9)
   + 20 B286(9) + 20 B287(9) + 63 B288(9) + 53 B289(9) + 39 B290(9)
   + 75 B291(9) + 39 B292(9) + 41 B293(7) + 41 B294(9) + 42 B295(9)
   + 62 B296(7) + 80 B297(9) + 60 B298(9) + 92 B299(9) + 41 B301(9)
   + 55 B302(7) + 62 B303(9) + 55 B304(9) + 76 B305(9) + 95 B306(9)
   + 78 B307(9) + 113 B308(9) + 60 B309(9) + 60 B310(9) + 78 B311(9)
   + 41 B312(9) + 60 B313(9) + 60 B314(9) + 73 B315(9) + 73 B316(9)
   + 93 B317(9) + 90 B318(9) + 84 B319(9) + 74 B320(9) + 74 B321(9)
   + 90 B322(9) + 42 B323(7) + 41 B324(7) + 55 B325(7) + 93 B326(7)
   + 60 B327(7) + 110 B328(7) + 39 B329(7) + 20 B330(7) + 39 B331(9)
   + 43 B335(9) + 73 B336(9) + 59 B337(9) + 95 B338(9) + 59 B339(9)
   + 21 B340(7) + 21 B341(9) + 22 B342(9) + 42 B343(7) + 60 B344(9)
   + 72 B345(9) + 111 B346(9) + 20 B347(9) + 53 B348(9) + 39 B349(7)
   + 42 B350(9) + 39 B351(9) + 60 B352(9) + 78 B353(9) + 85 B354(9)
   + 120 B355(9) + 72 B356(9) + 66 B357(9) + 85 B358(9) + 53 B359(9)
   + 57 B360(9) + 66 B361(9) + 57 B362(9) + 57 B363(9) + 77 B364(9)
   + 74 B365(9) + 90 B366(9) + 80 B367(9) + 74 B368(9) + 74 B369(9)
   + 22 B370(7) + 39 B371(7) + 39 B372(7) + 77 B373(7) + 66 B374(7)
   + 93 B375(7)
Subject To
 c0: B188(7) + B235(7) + B282(7) + B329(7) = 1
 c1: B189(7) + B236(7) + B283(7) + B330(7) = 1
 c2: B190(9) + B237(9) + B284(9) + B331(9) = 1
 c3: B191(7) + B238(7) + B285(7) + B332(7) = 1
 c4: B192(9) + B239(9) + B286(9) + B333(9) = 1
 c5: B193(9) + B240(9) + B287(9) + B334(9) = 1
 c6: B194(9) + B241(9) + B288(9) + B335(9) = 1
 c7: B195(9) + B242(9) + B289(9) + B336(9) = 1
 c8: B196(9) + B243(9) + B290(9) + B337(9) = 1
 c9: B197(9) + B244(9) + B291(9) + B338(9) = 1
 c10: B198(9) + B245(9) + B292(9) + B339(9) = 1
 c11: B199(7) + B246(7) + B293(7) + B340(7) = 1
 c12: B200(9) + B247(9) + B294(9) + B341(9) = 1
 c13: B201(9) + B248(9) + B295(9) + B342(9) = 1
 c14: B202(7) + B249(7) + B296(7) + B343(7) = 1
 c15: B203(9) + B250(9) + B297(9) + B344(9) = 1
 c16: B204(9) + B251(9) + B298(9) + B345(9) = 1
 c17: B205(9) + B252(9) + B299(9) + B346(9) = 1
 c18: B206(9) + B253(9) + B300(9) + B347(9) = 1
 c19: B207(9) + B254(9) + B301(9) + B348(9) = 1
 c20: B208(7) + B255(7) + B302(7) + B349(7) = 1
 c21: B209(9) + B256(9) + B303(9) + B350(9) = 1
 c22: B210(9) + B257(9) + B304(9) + B351(9) = 1
 c23: B211(9) + B258(9) + B305(9) + B352(9) = 1
 c24: B212(9) + B259(9) + B306(9) + B353(9) = 1
 c25: B213(9) + B260(9) + B307(9) + B354(9) = 1
 c26: B214(9) + B261(9) + B308(9) + B355(9) = 1
 c27: B215(9) + B262(9) + B309(9) + B356(9) = 1
 c28: B216(9) + B263(9) + B310(9) + B357(9) = 1
 c29: B217(9) + B264(9) + B311(9) + B358(9) = 1
 c30: B218(9) + B265(9) + B312(9) + B359(9) = 1
 c31: B219(9) + B266(9) + B313(9) + B360(9) = 1
 c32: B220(9) + B267(9) + B314(9) + B361(9) = 1
 c33: B221(9) + B268(9) + B315(9) + B362(9) = 1
 c34: B222(9) + B269(9) + B316(9) + B363(9) = 1
 c35: B223(9) + B270(9) + B317(9) + B364(9) = 1
 c36: B224(9) + B271(9) + B318(9) + B365(9) = 1
 c37: B225(9) + B272(9) + B319(9) + B366(9) = 1
 c38: B226(9) + B273(9) + B320(9) + B367(9) = 1
 c39: B227(9) + B274(9) + B321(9) + B368(9) = 1
 c40: B228(9) + B275(9) + B322(9) + B369(9) = 1
 c41: B229(7) + B276(7) + B323(7) + B370(7) = 1
 c42: B230(7) + B277(7) + B324(7) + B371(7) = 1
 c43: B231(7) + B278(7) + B325(7) + B372(7) = 1
 c44: B232(7) + B279(7) + B326(7) + B373(7) = 1
 c45: B233(7) + B280(7) + B327(7) + B374(7) = 1
 c46: B234(7) + B281(7) + B328(7) + B375(7) = 1
 c47: 279 B190(9) + 265 B192(9) + 325 B193(9) + 285 B194(9) + 150 B195(9)
   + 82 B196(9) + 197 B197(9) + 187 B198(9) + 153 B200(9) + 86 B201(9)
   + 377 B203(9) + 241 B204(9) + 152 B205(9) + 205 B206(9) + 306 B207(9)
   + 88 B209(9) + 379 B210(9) + 399 B211(9) + 390 B212(9) + 375 B213(9)
   + 238 B214(9) + 216 B215(9) + 26 B216(9) + 32 B217(9) + 202 B218(9)
   + 313 B219(9) + 139 B220(9) + 364 B221(9) + 11 B222(9) + 147 B223(9)
   + 398 B224(9) + 394 B225(9) + 59 B226(9) + 262 B227(9) + 384 B228(9)
   <= 2229.15
 c48: 279 B237(9) + 265 B239(9) + 325 B240(9) + 285 B241(9) + 150 B242(9)
   + 82 B243(9) + 197 B244(9) + 187 B245(9) + 153 B247(9) + 86 B248(9)
   + 377 B250(9) + 241 B251(9) + 152 B252(9) + 205 B253(9) + 306 B254(9)
   + 88 B256(9) + 379 B257(9) + 399 B258(9) + 390 B259(9) + 375 B260(9)
   + 238 B261(9) + 216 B262(9) + 26 B263(9) + 32 B264(9) + 202 B265(9)
   + 313 B266(9) + 139 B267(9) + 364 B268(9) + 11 B269(9) + 147 B270(9)
   + 398 B271(9) + 394 B272(9) + 59 B273(9) + 262 B274(9) + 384 B275(9)
   <= 2229.15
 c49: 279 B284(9) + 265 B286(9) + 325 B287(9) + 285 B288(9) + 150 B289(9)
   + 82 B290(9) + 197 B291(9) + 187 B292(9) + 153 B294(9) + 86 B295(9)
   + 377 B297(9) + 241 B298(9) + 152 B299(9) + 205 B300(9) + 306 B301(9)
   + 88 B303(9) + 379 B304(9) + 399 B305(9) + 390 B306(9) + 375 B307(9)
   + 238 B308(9) + 216 B309(9) + 26 B310(9) + 32 B311(9) + 202 B312(9)
   + 313 B313(9) + 139 B314(9) + 364 B315(9) + 11 B316(9) + 147 B317(9)
   + 398 B318(9) + 394 B319(9) + 59 B320(9) + 262 B321(9) + 384 B322(9)
   <= 2229.15
 c50: 279 B331(9) + 265 B333(9) + 325 B334(9) + 285 B335(9) + 150 B336(9)
   + 82 B337(9) + 197 B338(9) + 187 B339(9) + 153 B341(9) + 86 B342(9)
   + 377 B344(9) + 241 B345(9) + 152 B346(9) + 205 B347(9) + 306 B348(9)
   + 88 B350(9) + 379 B351(9) + 399 B352(9) + 390 B353(9) + 375 B354(9)
   + 238 B355(9) + 216 B356(9) + 26 B357(9) + 32 B358(9) + 202 B359(9)
   + 313 B360(9) + 139 B361(9) + 364 B362(9) + 11 B363(9) + 147 B364(9)
   + 398 B365(9) + 394 B366(9) + 59 B367(9) + 262 B368(9) + 384 B369(9)
   <= 2229.15
 c51: 279 B190(9) + 265 B192(9) + 325 B193(9) + 285 B194(9) + 150 B195(9)
   + 82 B196(9) + 197 B197(9) + 187 B198(9) + 153 B200(9) + 86 B201(9)
   + 377 B203(9) + 241 B204(9) + 152 B205(9) + 205 B206(9) + 306 B207(9)
   + 88 B209(9) + 379 B210(9) + 399 B211(9) + 390 B212(9) + 375 B213(9)
   + 238 B214(9) + 216 B215(9) + 26 B216(9) + 32 B217(9) + 202 B218(9)
   + 313 B219(9) + 139 B220(9) + 364 B221(9) + 11 B222(9) + 147 B223(9)
   + 398 B224(9) + 394 B225(9) + 59 B226(9) + 262 B227(9) + 384 B228(9)
   >= 1823.85
 c52: 279 B237(9) + 265 B239(9) + 325 B240(9) + 285 B241(9) + 150 B242(9)
   + 82 B243(9) + 197 B244(9) + 187 B245(9) + 153 B247(9) + 86 B248(9)
   + 377 B250(9) + 241 B251(9) + 152 B252(9) + 205 B253(9) + 306 B254(9)
   + 88 B256(9) + 379 B257(9) + 399 B258(9) + 390 B259(9) + 375 B260(9)
   + 238 B261(9) + 216 B262(9) + 26 B263(9) + 32 B264(9) + 202 B265(9)
   + 313 B266(9) + 139 B267(9) + 364 B268(9) + 11 B269(9) + 147 B270(9)
   + 398 B271(9) + 394 B272(9) + 59 B273(9) + 262 B274(9) + 384 B275(9)
   >= 1823.85
 c53: 279 B284(9) + 265 B286(9) + 325 B287(9) + 285 B288(9) + 150 B289(9)
   + 82 B290(9) + 197 B291(9) + 187 B292(9) + 153 B294(9) + 86 B295(9)
   + 377 B297(9) + 241 B298(9) + 152 B299(9) + 205 B300(9) + 306 B301(9)
   + 88 B303(9) + 379 B304(9) + 399 B305(9) + 390 B306(9) + 375 B307(9)
   + 238 B308(9) + 216 B309(9) + 26 B310(9) + 32 B311(9) + 202 B312(9)
   + 313 B313(9) + 139 B314(9) + 364 B315(9) + 11 B316(9) + 147 B317(9)
   + 398 B318(9) + 394 B319(9) + 59 B320(9) + 262 B321(9) + 384 B322(9)
   >= 1823.85
 c54: 279 B331(9) + 265 B333(9) + 325 B334(9) + 285 B335(9) + 150 B336(9)
   + 82 B337(9) + 197 B338(9) + 187 B339(9) + 153 B341(9) + 86 B342(9)
   + 377 B344(9) + 241 B345(9) + 152 B346(9) + 205 B347(9) + 306 B348(9)
   + 88 B350(9) + 379 B351(9) + 399 B352(9) + 390 B353(9) + 375 B354(9)
   + 238 B355(9) + 216 B356(9) + 26 B357(9) + 32 B358(9) + 202 B359(9)
   + 313 B360(9) + 139 B361(9) + 364 B362(9) + 11 B363(9) + 147 B364(9)
   + 398 B365(9) + 394 B366(9) + 59 B367(9) + 262 B368(9) + 384 B369(9)
   >= 1823.85
 c55: B188(7) + B189(7) + B190(9) - 9999 B376(2) <= 0
 c56: B188(7) + B195(9) - 9999 B377(2) <= 0
 c57: B189(7) + B191(7) + B206(9) - 9999 B378(2) <= 0
 c58: B190(9) + B196(9) + B198(9) - 9999 B379(2) <= 0
 c59: B191(7) + B192(9) + B193(9) - 9999 B380(2) <= 0
 c60: B192(9) + B201(9) + B229(7) - 9999 B381(2) <= 0
 c61: B193(9) + B199(7) + B200(9) - 9999 B382(2) <= 0
 c62: B194(9) + B229(7) - 9999 B383(2) <= 0
 c63: B194(9) + B202(7) + B203(9) - 9999 B384(2) <= 0
 c64: B195(9) + B196(9) + B197(9) - 9999 B385(2) <= 0
 c65: B197(9) + B204(9) + B205(9) - 9999 B386(2) <= 0
 c66: B198(9) + B204(9) + B207(9) + B215(9) - 9999 B387(2) <= 0
 c67: B199(7) + B201(9) + B202(7) + B209(9) - 9999 B388(2) <= 0
 c68: B200(9) + B208(7) + B210(9) + B230(7) + B231(7) - 9999 B389(2) <= 0
 c69: B203(9) + B211(9) + B212(9) + B232(7) - 9999 B390(2) <= 0
 c70: B205(9) + B213(9) + B214(9) - 9999 B391(2) <= 0
 c71: B206(9) + B207(9) + B218(9) + B230(7) - 9999 B392(2) <= 0
 c72: B208(7) + B219(9) + B221(9) + B222(9) - 9999 B393(2) <= 0
 c73: B209(9) + B210(9) + B211(9) - 9999 B394(2) <= 0
 c74: B212(9) + B223(9) + B234(7) - 9999 B395(2) <= 0
 c75: B213(9) + B215(9) + B216(9) + B217(9) - 9999 B396(2) <= 0
 c76: B214(9) + B225(9) - 9999 B397(2) <= 0
 c77: B216(9) + B218(9) + B219(9) + B220(9) + B231(7) + B233(7)
   - 9999 B398(2) <= 0
 c78: B217(9) + B225(9) + B226(9) + B233(7) - 9999 B399(2) <= 0
 c79: B220(9) + B226(9) + B227(9) - 9999 B400(2) <= 0
 c80: B221(9) + B224(9) + B227(9) + B228(9) - 9999 B401(2) <= 0
 c81: B222(9) + B223(9) + B224(9) + B232(7) - 9999 B402(2) <= 0
 c82: B228(9) + B234(7) - 9999 B403(2) <= 0
 c83: B235(7) + B236(7) + B237(9) - 9999 B404(2) <= 0
 c84: B235(7) + B242(9) - 9999 B405(2) <= 0
 c85: B236(7) + B238(7) + B253(9) - 9999 B406(2) <= 0
 c86: B237(9) + B243(9) + B245(9) - 9999 B407(2) <= 0
 c87: B238(7) + B239(9) + B240(9) - 9999 B408(2) <= 0
 c88: B239(9) + B248(9) + B276(7) - 9999 B409(2) <= 0
 c89: B240(9) + B246(7) + B247(9) - 9999 B410(2) <= 0
 c90: B241(9) + B276(7) - 9999 B411(2) <= 0
 c91: B241(9) + B249(7) + B250(9) - 9999 B412(2) <= 0
 c92: B242(9) + B243(9) + B244(9) - 9999 B413(2) <= 0
 c93: B244(9) + B251(9) + B252(9) - 9999 B414(2) <= 0
 c94: B245(9) + B251(9) + B254(9) + B262(9) - 9999 B415(2) <= 0
 c95: B246(7) + B248(9) + B249(7) + B256(9) - 9999 B416(2) <= 0
 c96: B247(9) + B255(7) + B257(9) + B277(7) + B278(7) - 9999 B417(2) <= 0
 c97: B250(9) + B258(9) + B259(9) + B279(7) - 9999 B418(2) <= 0
 c98: B252(9) + B260(9) + B261(9) - 9999 B419(2) <= 0
 c99: B253(9) + B254(9) + B265(9) + B277(7) - 9999 B420(2) <= 0
 c100: B255(7) + B266(9) + B268(9) + B269(9) - 9999 B421(2) <= 0
 c101: B256(9) + B257(9) + B258(9) - 9999 B422(2) <= 0
 c102: B259(9) + B270(9) + B281(7) - 9999 B423(2) <= 0
 c103: B260(9) + B262(9) + B263(9) + B264(9) - 9999 B424(2) <= 0
 c104: B261(9) + B272(9) - 9999 B425(2) <= 0
 c105: B263(9) + B265(9) + B266(9) + B267(9) + B278(7) + B280(7)
   - 9999 B426(2) <= 0
 c106: B264(9) + B272(9) + B273(9) + B280(7) - 9999 B427(2) <= 0
 c107: B267(9) + B273(9) + B274(9) - 9999 B428(2) <= 0
 c108: B268(9) + B271(9) + B274(9) + B275(9) - 9999 B429(2) <= 0
 c109: B269(9) + B270(9) + B271(9) + B279(7) - 9999 B430(2) <= 0
 c110: B275(9) + B281(7) - 9999 B431(2) <= 0
 c111: B282(7) + B283(7) + B284(9) - 9999 B432(2) <= 0
 c112: B282(7) + B289(9) - 9999 B433(2) <= 0
 c113: B283(7) + B285(7) + B300(9) - 9999 B434(2) <= 0
 c114: B284(9) + B290(9) + B292(9) - 9999 B435(2) <= 0
 c115: B285(7) + B286(9) + B287(9) - 9999 B436(2) <= 0
 c116: B286(9) + B295(9) + B323(7) - 9999 B437(2) <= 0
 c117: B287(9) + B293(7) + B294(9) - 9999 B438(2) <= 0
 c118: B288(9) + B323(7) - 9999 B439(2) <= 0
 c119: B288(9) + B296(7) + B297(9) - 9999 B440(2) <= 0
 c120: B289(9) + B290(9) + B291(9) - 9999 B441(2) <= 0
 c121: B291(9) + B298(9) + B299(9) - 9999 B442(2) <= 0
 c122: B292(9) + B298(9) + B301(9) + B309(9) - 9999 B443(2) <= 0
 c123: B293(7) + B295(9) + B296(7) + B303(9) - 9999 B444(2) <= 0
 c124: B294(9) + B302(7) + B304(9) + B324(7) + B325(7) - 9999 B445(2) <= 0
 c125: B297(9) + B305(9) + B306(9) + B326(7) - 9999 B446(2) <= 0
 c126: B299(9) + B307(9) + B308(9) - 9999 B447(2) <= 0
 c127: B300(9) + B301(9) + B312(9) + B324(7) - 9999 B448(2) <= 0
 c128: B302(7) + B313(9) + B315(9) + B316(9) - 9999 B449(2) <= 0
 c129: B303(9) + B304(9) + B305(9) - 9999 B450(2) <= 0
 c130: B306(9) + B317(9) + B328(7) - 9999 B451(2) <= 0
 c131: B307(9) + B309(9) + B310(9) + B311(9) - 9999 B452(2) <= 0
 c132: B308(9) + B319(9) - 9999 B453(2) <= 0
 c133: B310(9) + B312(9) + B313(9) + B314(9) + B325(7) + B327(7)
   - 9999 B454(2) <= 0
 c134: B311(9) + B319(9) + B320(9) + B327(7) - 9999 B455(2) <= 0
 c135: B314(9) + B320(9) + B321(9) - 9999 B456(2) <= 0
 c136: B315(9) + B318(9) + B321(9) + B322(9) - 9999 B457(2) <= 0
 c137: B316(9) + B317(9) + B318(9) + B326(7) - 9999 B458(2) <= 0
 c138: B322(9) + B328(7) - 9999 B459(2) <= 0
 c139: B329(7) + B330(7) + B331(9) - 9999 B460(2) <= 0
 c140: B329(7) + B336(9) - 9999 B461(2) <= 0
 c141: B330(7) + B332(7) + B347(9) - 9999 B462(2) <= 0
 c142: B331(9) + B337(9) + B339(9) - 9999 B463(2) <= 0
 c143: B332(7) + B333(9) + B334(9) - 9999 B464(2) <= 0
 c144: B333(9) + B342(9) + B370(7) - 9999 B465(2) <= 0
 c145: B334(9) + B340(7) + B341(9) - 9999 B466(2) <= 0
 c146: B335(9) + B370(7) - 9999 B467(2) <= 0
 c147: B335(9) + B343(7) + B344(9) - 9999 B468(2) <= 0
 c148: B336(9) + B337(9) + B338(9) - 9999 B469(2) <= 0
 c149: B338(9) + B345(9) + B346(9) - 9999 B470(2) <= 0
 c150: B339(9) + B345(9) + B348(9) + B356(9) - 9999 B471(2) <= 0
 c151: B340(7) + B342(9) + B343(7) + B350(9) - 9999 B472(2) <= 0
 c152: B341(9) + B349(7) + B351(9) + B371(7) + B372(7) - 9999 B473(2) <= 0
 c153: B344(9) + B352(9) + B353(9) + B373(7) - 9999 B474(2) <= 0
 c154: B346(9) + B354(9) + B355(9) - 9999 B475(2) <= 0
 c155: B347(9) + B348(9) + B359(9) + B371(7) - 9999 B476(2) <= 0
 c156: B349(7) + B360(9) + B362(9) + B363(9) - 9999 B477(2) <= 0
 c157: B350(9) + B351(9) + B352(9) - 9999 B478(2) <= 0
 c158: B353(9) + B364(9) + B375(7) - 9999 B479(2) <= 0
 c159: B354(9) + B356(9) + B357(9) + B358(9) - 9999 B480(2) <= 0
 c160: B355(9) + B366(9) - 9999 B481(2) <= 0
 c161: B357(9) + B359(9) + B360(9) + B361(9) + B372(7) + B374(7)
   - 9999 B482(2) <= 0
 c162: B358(9) + B366(9) + B367(9) + B374(7) - 9999 B483(2) <= 0
 c163: B361(9) + B367(9) + B368(9) - 9999 B484(2) <= 0
 c164: B362(9) + B365(9) + B368(9) + B369(9) - 9999 B485(2) <= 0
 c165: B363(9) + B364(9) + B365(9) + B373(7) - 9999 B486(2) <= 0
 c166: B369(9) + B375(7) - 9999 B487(2) <= 0
 c167: B188(7) + B189(7) + B190(9) - B376(2) >= 0
 c168: B188(7) + B195(9) - B377(2) >= 0
 c169: B189(7) + B191(7) + B206(9) - B378(2) >= 0
 c170: B190(9) + B196(9) + B198(9) - B379(2) >= 0
 c171: B191(7) + B192(9) + B193(9) - B380(2) >= 0
 c172: B192(9) + B201(9) + B229(7) - B381(2) >= 0
 c173: B193(9) + B199(7) + B200(9) - B382(2) >= 0
 c174: B194(9) + B229(7) - B383(2) >= 0
 c175: B194(9) + B202(7) + B203(9) - B384(2) >= 0
 c176: B195(9) + B196(9) + B197(9) - B385(2) >= 0
 c177: B197(9) + B204(9) + B205(9) - B386(2) >= 0
 c178: B198(9) + B204(9) + B207(9) + B215(9) - B387(2) >= 0
 c179: B199(7) + B201(9) + B202(7) + B209(9) - B388(2) >= 0
 c180: B200(9) + B208(7) + B210(9) + B230(7) + B231(7) - B389(2) >= 0
 c181: B203(9) + B211(9) + B212(9) + B232(7) - B390(2) >= 0
 c182: B205(9) + B213(9) + B214(9) - B391(2) >= 0
 c183: B206(9) + B207(9) + B218(9) + B230(7) - B392(2) >= 0
 c184: B208(7) + B219(9) + B221(9) + B222(9) - B393(2) >= 0
 c185: B209(9) + B210(9) + B211(9) - B394(2) >= 0
 c186: B212(9) + B223(9) + B234(7) - B395(2) >= 0
 c187: B213(9) + B215(9) + B216(9) + B217(9) - B396(2) >= 0
 c188: B214(9) + B225(9) - B397(2) >= 0
 c189: B216(9) + B218(9) + B219(9) + B220(9) + B231(7) + B233(7) - B398(2)
   >= 0
 c190: B217(9) + B225(9) + B226(9) + B233(7) - B399(2) >= 0
 c191: B220(9) + B226(9) + B227(9) - B400(2) >= 0
 c192: B221(9) + B224(9) + B227(9) + B228(9) - B401(2) >= 0
 c193: B222(9) + B223(9) + B224(9) + B232(7) - B402(2) >= 0
 c194: B228(9) + B234(7) - B403(2) >= 0
 c195: B235(7) + B236(7) + B237(9) - B404(2) >= 0
 c196: B235(7) + B242(9) - B405(2) >= 0
 c197: B236(7) + B238(7) + B253(9) - B406(2) >= 0
 c198: B237(9) + B243(9) + B245(9) - B407(2) >= 0
 c199: B238(7) + B239(9) + B240(9) - B408(2) >= 0
 c200: B239(9) + B248(9) + B276(7) - B409(2) >= 0
 c201: B240(9) + B246(7) + B247(9) - B410(2) >= 0
 c202: B241(9) + B276(7) - B411(2) >= 0
 c203: B241(9) + B249(7) + B250(9) - B412(2) >= 0
 c204: B242(9) + B243(9) + B244(9) - B413(2) >= 0
 c205: B244(9) + B251(9) + B252(9) - B414(2) >= 0
 c206: B245(9) + B251(9) + B254(9) + B262(9) - B415(2) >= 0
 c207: B246(7) + B248(9) + B249(7) + B256(9) - B416(2) >= 0
 c208: B247(9) + B255(7) + B257(9) + B277(7) + B278(7) - B417(2) >= 0
 c209: B250(9) + B258(9) + B259(9) + B279(7) - B418(2) >= 0
 c210: B252(9) + B260(9) + B261(9) - B419(2) >= 0
 c211: B253(9) + B254(9) + B265(9) + B277(7) - B420(2) >= 0
 c212: B255(7) + B266(9) + B268(9) + B269(9) - B421(2) >= 0
 c213: B256(9) + B257(9) + B258(9) - B422(2) >= 0
 c214: B259(9) + B270(9) + B281(7) - B423(2) >= 0
 c215: B260(9) + B262(9) + B263(9) + B264(9) - B424(2) >= 0
 c216: B261(9) + B272(9) - B425(2) >= 0
 c217: B263(9) + B265(9) + B266(9) + B267(9) + B278(7) + B280(7) - B426(2)
   >= 0
 c218: B264(9) + B272(9) + B273(9) + B280(7) - B427(2) >= 0
 c219: B267(9) + B273(9) + B274(9) - B428(2) >= 0
 c220: B268(9) + B271(9) + B274(9) + B275(9) - B429(2) >= 0
 c221: B269(9) + B270(9) + B271(9) + B279(7) - B430(2) >= 0
 c222: B275(9) + B281(7) - B431(2) >= 0
 c223: B282(7) + B283(7) + B284(9) - B432(2) >= 0
 c224: B282(7) + B289(9) - B433(2) >= 0
 c225: B283(7) + B285(7) + B300(9) - B434(2) >= 0
 c226: B284(9) + B290(9) + B292(9) - B435(2) >= 0
 c227: B285(7) + B286(9) + B287(9) - B436(2) >= 0
 c228: B286(9) + B295(9) + B323(7) - B437(2) >= 0
 c229: B287(9) + B293(7) + B294(9) - B438(2) >= 0
 c230: B288(9) + B323(7) - B439(2) >= 0
 c231: B288(9) + B296(7) + B297(9) - B440(2) >= 0
 c232: B289(9) + B290(9) + B291(9) - B441(2) >= 0
 c233: B291(9) + B298(9) + B299(9) - B442(2) >= 0
 c234: B292(9) + B298(9) + B301(9) + B309(9) - B443(2) >= 0
 c235: B293(7) + B295(9) + B296(7) + B303(9) - B444(2) >= 0
 c236: B294(9) + B302(7) + B304(9) + B324(7) + B325(7) - B445(2) >= 0
 c237: B297(9) + B305(9) + B306(9) + B326(7) - B446(2) >= 0
 c238: B299(9) + B307(9) + B308(9) - B447(2) >= 0
 c239: B300(9) + B301(9) + B312(9) + B324(7) - B448(2) >= 0
 c240: B302(7) + B313(9) + B315(9) + B316(9) - B449(2) >= 0
 c241: B303(9) + B304(9) + B305(9) - B450(2) >= 0
 c242: B306(9) + B317(9) + B328(7) - B451(2) >= 0
 c243: B307(9) + B309(9) + B310(9) + B311(9) - B452(2) >= 0
 c244: B308(9) + B319(9) - B453(2) >= 0
 c245: B310(9) + B312(9) + B313(9) + B314(9) + B325(7) + B327(7) - B454(2)
   >= 0
 c246: B311(9) + B319(9) + B320(9) + B327(7) - B455(2) >= 0
 c247: B314(9) + B320(9) + B321(9) - B456(2) >= 0
 c248: B315(9) + B318(9) + B321(9) + B322(9) - B457(2) >= 0
 c249: B316(9) + B317(9) + B318(9) + B326(7) - B458(2) >= 0
 c250: B322(9) + B328(7) - B459(2) >= 0
 c251: B329(7) + B330(7) + B331(9) - B460(2) >= 0
 c252: B329(7) + B336(9) - B461(2) >= 0
 c253: B330(7) + B332(7) + B347(9) - B462(2) >= 0
 c254: B331(9) + B337(9) + B339(9) - B463(2) >= 0
 c255: B332(7) + B333(9) + B334(9) - B464(2) >= 0
 c256: B333(9) + B342(9) + B370(7) - B465(2) >= 0
 c257: B334(9) + B340(7) + B341(9) - B466(2) >= 0
 c258: B335(9) + B370(7) - B467(2) >= 0
 c259: B335(9) + B343(7) + B344(9) - B468(2) >= 0
 c260: B336(9) + B337(9) + B338(9) - B469(2) >= 0
 c261: B338(9) + B345(9) + B346(9) - B470(2) >= 0
 c262: B339(9) + B345(9) + B348(9) + B356(9) - B471(2) >= 0
 c263: B340(7) + B342(9) + B343(7) + B350(9) - B472(2) >= 0
 c264: B341(9) + B349(7) + B351(9) + B371(7) + B372(7) - B473(2) >= 0
 c265: B344(9) + B352(9) + B353(9) + B373(7) - B474(2) >= 0
 c266: B346(9) + B354(9) + B355(9) - B475(2) >= 0
 c267: B347(9) + B348(9) + B359(9) + B371(7) - B476(2) >= 0
 c268: B349(7) + B360(9) + B362(9) + B363(9) - B477(2) >= 0
 c269: B350(9) + B351(9) + B352(9) - B478(2) >= 0
 c270: B353(9) + B364(9) + B375(7) - B479(2) >= 0
 c271: B354(9) + B356(9) + B357(9) + B358(9) - B480(2) >= 0
 c272: B355(9) + B366(9) - B481(2) >= 0
 c273: B357(9) + B359(9) + B360(9) + B361(9) + B372(7) + B374(7) - B482(2)
   >= 0
 c274: B358(9) + B366(9) + B367(9) + B374(7) - B483(2) >= 0
 c275: B361(9) + B367(9) + B368(9) - B484(2) >= 0
 c276: B362(9) + B365(9) + B368(9) + B369(9) - B485(2) >= 0
 c277: B363(9) + B364(9) + B365(9) + B373(7) - B486(2) >= 0
 c278: B369(9) + B375(7) - B487(2) >= 0
 c279: B188(7) + B189(7) + B190(9) - 2 C488(1) - B600(3) = 0
 c280: B188(7) + B195(9) - 2 C492(1) - B604(3) = 0
 c281: B189(7) + B191(7) + B206(9) - 2 C496(1) - B608(3) = 0
 c282: B190(9) + B196(9) + B198(9) - 2 C500(1) - B612(3) = 0
 c283: B191(7) + B192(9) + B193(9) - 2 C504(1) - B616(3) = 0
 c284: B192(9) + B201(9) + B229(7) - 2 C508(1) - B620(3) = 0
 c285: B193(9) + B199(7) + B200(9) - 2 C512(1) - B624(3) = 0
 c286: B194(9) + B229(7) - 2 C516(1) - B628(3) = 0
 c287: B194(9) + B202(7) + B203(9) - 2 C520(1) - B632(3) = 0
 c288: B195(9) + B196(9) + B197(9) - 2 C524(1) - B636(3) = 0
 c289: B197(9) + B204(9) + B205(9) - 2 C528(1) - B640(3) = 0
 c290: B198(9) + B204(9) + B207(9) + B215(9) - 2 C532(1) - B644(3) = 0
 c291: B199(7) + B201(9) + B202(7) + B209(9) - 2 C536(1) - B648(3) = 0
 c292: B200(9) + B208(7) + B210(9) + B230(7) + B231(7) - 2 C540(1)
   - B652(3) = 0
 c293: B203(9) + B211(9) + B212(9) + B232(7) - 2 C544(1) - B656(3) = 0
 c294: B205(9) + B213(9) + B214(9) - 2 C548(1) - B660(3) = 0
 c295: B206(9) + B207(9) + B218(9) + B230(7) - 2 C552(1) - B664(3) = 0
 c296: B208(7) + B219(9) + B221(9) + B222(9) - 2 C556(1) - B668(3) = 0
 c297: B209(9) + B210(9) + B211(9) - 2 C560(1) - B672(3) = 0
 c298: B212(9) + B223(9) + B234(7) - 2 C564(1) - B676(3) = 0
 c299: B213(9) + B215(9) + B216(9) + B217(9) - 2 C568(1) - B680(3) = 0
 c300: B214(9) + B225(9) - 2 C572(1) - B684(3) = 0
 c301: B216(9) + B218(9) + B219(9) + B220(9) + B231(7) + B233(7)
   - 2 C576(1) - B688(3) = 0
 c302: B217(9) + B225(9) + B226(9) + B233(7) - 2 C580(1) - B692(3) = 0
 c303: B220(9) + B226(9) + B227(9) - 2 C584(1) - B696(3) = 0
 c304: B221(9) + B224(9) + B227(9) + B228(9) - 2 C588(1) - B700(3) = 0
 c305: B222(9) + B223(9) + B224(9) + B232(7) - 2 C592(1) - B704(3) = 0
 c306: B228(9) + B234(7) - 2 C596(1) - B708(3) = 0
 c307: B235(7) + B236(7) + B237(9) - 2 C489(1) - B601(3) = 0
 c308: B235(7) + B242(9) - 2 C493(1) - B605(3) = 0
 c309: B236(7) + B238(7) + B253(9) - 2 C497(1) - B609(3) = 0
 c310: B237(9) + B243(9) + B245(9) - 2 C501(1) - B613(3) = 0
 c311: B238(7) + B239(9) + B240(9) - 2 C505(1) - B617(3) = 0
 c312: B239(9) + B248(9) + B276(7) - 2 C509(1) - B621(3) = 0
 c313: B240(9) + B246(7) + B247(9) - 2 C513(1) - B625(3) = 0
 c314: B241(9) + B276(7) - 2 C517(1) - B629(3) = 0
 c315: B241(9) + B249(7) + B250(9) - 2 C521(1) - B633(3) = 0
 c316: B242(9) + B243(9) + B244(9) - 2 C525(1) - B637(3) = 0
 c317: B244(9) + B251(9) + B252(9) - 2 C529(1) - B641(3) = 0
 c318: B245(9) + B251(9) + B254(9) + B262(9) - 2 C533(1) - B645(3) = 0
 c319: B246(7) + B248(9) + B249(7) + B256(9) - 2 C537(1) - B649(3) = 0
 c320: B247(9) + B255(7) + B257(9) + B277(7) + B278(7) - 2 C541(1)
   - B653(3) = 0
 c321: B250(9) + B258(9) + B259(9) + B279(7) - 2 C545(1) - B657(3) = 0
 c322: B252(9) + B260(9) + B261(9) - 2 C549(1) - B661(3) = 0
 c323: B253(9) + B254(9) + B265(9) + B277(7) - 2 C553(1) - B665(3) = 0
 c324: B255(7) + B266(9) + B268(9) + B269(9) - 2 C557(1) - B669(3) = 0
 c325: B256(9) + B257(9) + B258(9) - 2 C561(1) - B673(3) = 0
 c326: B259(9) + B270(9) + B281(7) - 2 C565(1) - B677(3) = 0
 c327: B260(9) + B262(9) + B263(9) + B264(9) - 2 C569(1) - B681(3) = 0
 c328: B261(9) + B272(9) - 2 C573(1) - B685(3) = 0
 c329: B263(9) + B265(9) + B266(9) + B267(9) + B278(7) + B280(7)
   - 2 C577(1) - B689(3) = 0
 c330: B264(9) + B272(9) + B273(9) + B280(7) - 2 C581(1) - B693(3) = 0
 c331: B267(9) + B273(9) + B274(9) - 2 C585(1) - B697(3) = 0
 c332: B268(9) + B271(9) + B274(9) + B275(9) - 2 C589(1) - B701(3) = 0
 c333: B269(9) + B270(9) + B271(9) + B279(7) - 2 C593(1) - B705(3) = 0
 c334: B275(9) + B281(7) - 2 C597(1) - B709(3) = 0
 c335: B282(7) + B283(7) + B284(9) - 2 C490(1) - B602(3) = 0
 c336: B282(7) + B289(9) - 2 C494(1) - B606(3) = 0
 c337: B283(7) + B285(7) + B300(9) - 2 C498(1) - B610(3) = 0
 c338: B284(9) + B290(9) + B292(9) - 2 C502(1) - B614(3) = 0
 c339: B285(7) + B286(9) + B287(9) - 2 C506(1) - B618(3) = 0
 c340: B286(9) + B295(9) + B323(7) - 2 C510(1) - B622(3) = 0
 c341: B287(9) + B293(7) + B294(9) - 2 C514(1) - B626(3) = 0
 c342: B288(9) + B323(7) - 2 C518(1) - B630(3) = 0
 c343: B288(9) + B296(7) + B297(9) - 2 C522(1) - B634(3) = 0
 c344: B289(9) + B290(9) + B291(9) - 2 C526(1) - B638(3) = 0
 c345: B291(9) + B298(9) + B299(9) - 2 C530(1) - B642(3) = 0
 c346: B292(9) + B298(9) + B301(9) + B309(9) - 2 C534(1) - B646(3) = 0
 c347: B293(7) + B295(9) + B296(7) + B303(9) - 2 C538(1) - B650(3) = 0
 c348: B294(9) + B302(7) + B304(9) + B324(7) + B325(7) - 2 C542(1)
   - B654(3) = 0
 c349: B297(9) + B305(9) + B306(9) + B326(7) - 2 C546(1) - B658(3) = 0
 c350: B299(9) + B307(9) + B308(9) - 2 C550(1) - B662(3) = 0
 c351: B300(9) + B301(9) + B312(9) + B324(7) - 2 C554(1) - B666(3) = 0
 c352: B302(7) + B313(9) + B315(9) + B316(9) - 2 C558(1) - B670(3) = 0
 c353: B303(9) + B304(9) + B305(9) - 2 C562(1) - B674(3) = 0
 c354: B306(9) + B317(9) + B328(7) - 2 C566(1) - B678(3) = 0
 c355: B307(9) + B309(9) + B310(9) + B311(9) - 2 C570(1) - B682(3) = 0
 c356: B308(9) + B319(9) - 2 C574(1) - B686(3) = 0
 c357: B310(9) + B312(9) + B313(9) + B314(9) + B325(7) + B327(7)
   - 2 C578(1) - B690(3) = 0
 c358: B311(9) + B319(9) + B320(9) + B327(7) - 2 C582(1) - B694(3) = 0
 c359: B314(9) + B320(9) + B321(9) - 2 C586(1) - B698(3) = 0
 c360: B315(9) + B318(9) + B321(9) + B322(9) - 2 C590(1) - B702(3) = 0
 c361: B316(9) + B317(9) + B318(9) + B326(7) - 2 C594(1) - B706(3) = 0
 c362: B322(9) + B328(7) - 2 C598(1) - B710(3) = 0
 c363: B329(7) + B330(7) + B331(9) - 2 C491(1) - B603(3) = 0
 c364: B329(7) + B336(9) - 2 C495(1) - B607(3) = 0
 c365: B330(7) + B332(7) + B347(9) - 2 C499(1) - B611(3) = 0
 c366: B331(9) + B337(9) + B339(9) - 2 C503(1) - B615(3) = 0
 c367: B332(7) + B333(9) + B334(9) - 2 C507(1) - B619(3) = 0
 c368: B333(9) + B342(9) + B370(7) - 2 C511(1) - B623(3) = 0
 c369: B334(9) + B340(7) + B341(9) - 2 C515(1) - B627(3) = 0
 c370: B335(9) + B370(7) - 2 C519(1) - B631(3) = 0
 c371: B335(9) + B343(7) + B344(9) - 2 C523(1) - B635(3) = 0
 c372: B336(9) + B337(9) + B338(9) - 2 C527(1) - B639(3) = 0
 c373: B338(9) + B345(9) + B346(9) - 2 C531(1) - B643(3) = 0
 c374: B339(9) + B345(9) + B348(9) + B356(9) - 2 C535(1) - B647(3) = 0
 c375: B340(7) + B342(9) + B343(7) + B350(9) - 2 C539(1) - B651(3) = 0
 c376: B341(9) + B349(7) + B351(9) + B371(7) + B372(7) - 2 C543(1)
   - B655(3) = 0
 c377: B344(9) + B352(9) + B353(9) + B373(7) - 2 C547(1) - B659(3) = 0
 c378: B346(9) + B354(9) + B355(9) - 2 C551(1) - B663(3) = 0
 c379: B347(9) + B348(9) + B359(9) + B371(7) - 2 C555(1) - B667(3) = 0
 c380: B349(7) + B360(9) + B362(9) + B363(9) - 2 C559(1) - B671(3) = 0
 c381: B350(9) + B351(9) + B352(9) - 2 C563(1) - B675(3) = 0
 c382: B353(9) + B364(9) + B375(7) - 2 C567(1) - B679(3) = 0
 c383: B354(9) + B356(9) + B357(9) + B358(9) - 2 C571(1) - B683(3) = 0
 c384: B355(9) + B366(9) - 2 C575(1) - B687(3) = 0
 c385: B357(9) + B359(9) + B360(9) + B361(9) + B372(7) + B374(7)
   - 2 C579(1) - B691(3) = 0
 c386: B358(9) + B366(9) + B367(9) + B374(7) - 2 C583(1) - B695(3) = 0
 c387: B361(9) + B367(9) + B368(9) - 2 C587(1) - B699(3) = 0
 c388: B362(9) + B365(9) + B368(9) + B369(9) - 2 C591(1) - B703(3) = 0
 c389: B363(9) + B364(9) + B365(9) + B373(7) - 2 C595(1) - B707(3) = 0
 c390: B369(9) + B375(7) - 2 C599(1) - B711(3) = 0
 c391: B664(3) + B665(3) + B666(3) + B667(3) - B712(3) >= 0
 c392: B628(3) + B629(3) + B630(3) + B631(3) - B717(3) >= 0
 c393: B648(3) + B649(3) + B650(3) + B651(3) - B721(3) >= 0
 c394: B644(3) + B645(3) + B646(3) + B647(3) - B724(3) >= 0
 c395: B604(3) + B605(3) + B606(3) + B607(3) - B725(3) >= 0
 c396: B656(3) + B657(3) + B658(3) + B659(3) - B728(3) >= 0
 c397: B680(3) + B681(3) + B682(3) + B683(3) - B730(3) >= 0
 c398: B688(3) + B689(3) + B690(3) + B691(3) - B731(3) >= 0
 c399: B668(3) + B669(3) + B670(3) + B671(3) - B732(3) >= 0
 c400: B704(3) + B705(3) + B706(3) + B707(3) - B733(3) >= 0
 c401: B684(3) + B685(3) + B686(3) + B687(3) - B735(3) >= 0
 c402: B692(3) + B693(3) + B694(3) + B695(3) - B736(3) >= 0
 c403: B700(3) + B701(3) + B702(3) + B703(3) - B738(3) >= 0
 c404: B708(3) + B709(3) + B710(3) + B711(3) - B739(3) >= 0
 c405: B664(3) + B665(3) + B666(3) + B667(3) - 4 B712(3) <= 0
 c406: B628(3) + B629(3) + B630(3) + B631(3) - 4 B717(3) <= 0
 c407: B648(3) + B649(3) + B650(3) + B651(3) - 4 B721(3) <= 0
 c408: B644(3) + B645(3) + B646(3) + B647(3) - 4 B724(3) <= 0
 c409: B604(3) + B605(3) + B606(3) + B607(3) - 4 B725(3) <= 0
 c410: B656(3) + B657(3) + B658(3) + B659(3) - 4 B728(3) <= 0
 c411: B680(3) + B681(3) + B682(3) + B683(3) - 4 B730(3) <= 0
 c412: B688(3) + B689(3) + B690(3) + B691(3) - 4 B731(3) <= 0
 c413: B668(3) + B669(3) + B670(3) + B671(3) - 4 B732(3) <= 0
 c414: B704(3) + B705(3) + B706(3) + B707(3) - 4 B733(3) <= 0
 c415: B684(3) + B685(3) + B686(3) + B687(3) - 4 B735(3) <= 0
 c416: B692(3) + B693(3) + B694(3) + B695(3) - 4 B736(3) <= 0
 c417: B700(3) + B701(3) + B702(3) + B703(3) - 4 B738(3) <= 0
 c418: B708(3) + B709(3) + B710(3) + B711(3) - 4 B739(3) <= 0
 c419: B600(3) + B601(3) + B602(3) + B603(3) - B713(3) >= 1
 c420: B608(3) + B609(3) + B610(3) + B611(3) - B714(3) >= 1
 c421: B616(3) + B617(3) + B618(3) + B619(3) - B715(3) >= 1
 c422: B620(3) + B621(3) + B622(3) + B623(3) - B716(3) >= 1
 c423: B636(3) + B637(3) + B638(3) + B639(3) - B718(3) >= 1
 c424: B612(3) + B613(3) + B614(3) + B615(3) - B719(3) >= 1
 c425: B624(3) + B625(3) + B626(3) + B627(3) - B720(3) >= 1
 c426: B632(3) + B633(3) + B634(3) + B635(3) - B722(3) >= 1
 c427: B640(3) + B641(3) + B642(3) + B643(3) - B723(3) >= 1
 c428: B652(3) + B653(3) + B654(3) + B655(3) - B726(3) >= 1
 c429: B672(3) + B673(3) + B674(3) + B675(3) - B727(3) >= 1
 c430: B660(3) + B661(3) + B662(3) + B663(3) - B729(3) >= 1
 c431: B676(3) + B677(3) + B678(3) + B679(3) - B734(3) >= 1
 c432: B696(3) + B697(3) + B698(3) + B699(3) - B737(3) >= 1
 c433: B600(3) + B601(3) + B602(3) + B603(3) - 4 B713(3) <= 1
 c434: B608(3) + B609(3) + B610(3) + B611(3) - 4 B714(3) <= 1
 c435: B616(3) + B617(3) + B618(3) + B619(3) - 4 B715(3) <= 1
 c436: B620(3) + B621(3) + B622(3) + B623(3) - 4 B716(3) <= 1
 c437: B636(3) + B637(3) + B638(3) + B639(3) - 4 B718(3) <= 1
 c438: B612(3) + B613(3) + B614(3) + B615(3) - 4 B719(3) <= 1
 c439: B624(3) + B625(3) + B626(3) + B627(3) - 4 B720(3) <= 1
 c440: B632(3) + B633(3) + B634(3) + B635(3) - 4 B722(3) <= 1
 c441: B640(3) + B641(3) + B642(3) + B643(3) - 4 B723(3) <= 1
 c442: B652(3) + B653(3) + B654(3) + B655(3) - 4 B726(3) <= 1
 c443: B672(3) + B673(3) + B674(3) + B675(3) - 4 B727(3) <= 1
 c444: B660(3) + B661(3) + B662(3) + B663(3) - 4 B729(3) <= 1
 c445: B676(3) + B677(3) + B678(3) + B679(3) - 4 B734(3) <= 1
 c446: B696(3) + B697(3) + B698(3) + B699(3) - 4 B737(3) <= 1
 c447: 0.0357142857142857 B712(3) + 0.0357142857142857 B713(3)
   + 0.0357142857142857 B714(3) + 0.0357142857142857 B715(3)
   + 0.0357142857142857 B716(3) + 0.0357142857142857 B717(3)
   + 0.0357142857142857 B718(3) + 0.0357142857142857 B719(3)
   + 0.0357142857142857 B720(3) + 0.0357142857142857 B721(3)
   + 0.0357142857142857 B722(3) + 0.0357142857142857 B723(3)
   + 0.0357142857142857 B724(3) + 0.0357142857142857 B725(3)
   + 0.0357142857142857 B726(3) + 0.0357142857142857 B727(3)
   + 0.0357142857142857 B728(3) + 0.0357142857142857 B729(3)
   + 0.0357142857142857 B730(3) + 0.0357142857142857 B731(3)
   + 0.0357142857142857 B732(3) + 0.0357142857142857 B733(3)
   + 0.0357142857142857 B734(3) + 0.0357142857142857 B735(3)
   + 0.0357142857142857 B736(3) + 0.0357142857142857 B737(3)
   + 0.0357142857142857 B738(3) + 0.0357142857142857 B739(3) <= 0.05
Bounds
Binaries
 B188(7) B189(7) B190(9) B191(7) B192(9) B193(9) B194(9) B195(9) B196(9)
 B197(9) B198(9) B199(7) B200(9) B201(9) B202(7) B203(9) B204(9) B205(9)
 B206(9) B207(9) B208(7) B209(9) B210(9) B211(9) B212(9) B213(9) B214(9)
 B215(9) B216(9) B217(9) B218(9) B219(9) B220(9) B221(9) B222(9) B223(9)
 B224(9) B225(9) B226(9) B227(9) B228(9) B229(7) B230(7) B231(7) B232(7)
 B233(7) B234(7) B235(7) B236(7) B237(9) B238(7) B239(9) B240(9) B241(9)
 B242(9) B243(9) B244(9) B245(9) B246(7) B247(9) B248(9) B249(7) B250(9)
 B251(9) B252(9) B253(9) B254(9) B255(7) B256(9) B257(9) B258(9) B259(9)
 B260(9) B261(9) B262(9) B263(9) B264(9) B265(9) B266(9) B267(9) B268(9)
 B269(9) B270(9) B271(9) B272(9) B273(9) B274(9) B275(9) B276(7) B277(7)
 B278(7) B279(7) B280(7) B281(7) B282(7) B283(7) B284(9) B285(7) B286(9)
 B287(9) B288(9) B289(9) B290(9) B291(9) B292(9) B293(7) B294(9) B295(9)
 B296(7) B297(9) B298(9) B299(9) B300(9) B301(9) B302(7) B303(9) B304(9)
 B305(9) B306(9) B307(9) B308(9) B309(9) B310(9) B311(9) B312(9) B313(9)
 B314(9) B315(9) B316(9) B317(9) B318(9) B319(9) B320(9) B321(9) B322(9)
 B323(7) B324(7) B325(7) B326(7) B327(7) B328(7) B329(7) B330(7) B331(9)
 B332(7) B333(9) B334(9) B335(9) B336(9) B337(9) B338(9) B339(9) B340(7)
 B341(9) B342(9) B343(7) B344(9) B345(9) B346(9) B347(9) B348(9) B349(7)
 B350(9) B351(9) B352(9) B353(9) B354(9) B355(9) B356(9) B357(9) B358(9)
 B359(9) B360(9) B361(9) B362(9) B363(9) B364(9) B365(9) B366(9) B367(9)
 B368(9) B369(9) B370(7) B371(7) B372(7) B373(7) B374(7) B375(7) B376(2)
 B377(2) B378(2) B379(2) B380(2) B381(2) B382(2) B383(2) B384(2) B385(2)
 B386(2) B387(2) B388(2) B389(2) B390(2) B391(2) B392(2) B393(2) B394(2)
 B395(2) B396(2) B397(2) B398(2) B399(2) B400(2) B401(2) B402(2) B403(2)
 B404(2) B405(2) B406(2) B407(2) B408(2) B409(2) B410(2) B411(2) B412(2)
 B413(2) B414(2) B415(2) B416(2) B417(2) B418(2) B419(2) B420(2) B421(2)
 B422(2) B423(2) B424(2) B425(2) B426(2) B427(2) B428(2) B429(2) B430(2)
 B431(2) B432(2) B433(2) B434(2) B435(2) B436(2) B437(2) B438(2) B439(2)
 B440(2) B441(2) B442(2) B443(2) B444(2) B445(2) B446(2) B447(2) B448(2)
 B449(2) B450(2) B451(2) B452(2) B453(2) B454(2) B455(2) B456(2) B457(2)
 B458(2) B459(2) B460(2) B461(2) B462(2) B463(2) B464(2) B465(2) B466(2)
 B467(2) B468(2) B469(2) B470(2) B471(2) B472(2) B473(2) B474(2) B475(2)
 B476(2) B477(2) B478(2) B479(2) B480(2) B481(2) B482(2) B483(2) B484(2)
 B485(2) B486(2) B487(2) B600(3) B601(3) B602(3) B603(3) B604(3) B605(3)
 B606(3) B607(3) B608(3) B609(3) B610(3) B611(3) B612(3) B613(3) B614(3)
 B615(3) B616(3) B617(3) B618(3) B619(3) B620(3) B621(3) B622(3) B623(3)
 B624(3) B625(3) B626(3) B627(3) B628(3) B629(3) B630(3) B631(3) B632(3)
 B633(3) B634(3) B635(3) B636(3) B637(3) B638(3) B639(3) B640(3) B641(3)
 B642(3) B643(3) B644(3) B645(3) B646(3) B647(3) B648(3) B649(3) B650(3)
 B651(3) B652(3) B653(3) B654(3) B655(3) B656(3) B657(3) B658(3) B659(3)
 B660(3) B661(3) B662(3) B663(3) B664(3) B665(3) B666(3) B667(3) B668(3)
 B669(3) B670(3) B671(3) B672(3) B673(3) B674(3) B675(3) B676(3) B677(3)
 B678(3) B679(3) B680(3) B681(3) B682(3) B683(3) B684(3) B685(3) B686(3)
 B687(3) B688(3) B689(3) B690(3) B691(3) B692(3) B693(3) B694(3) B695(3)
 B696(3) B697(3) B698(3) B699(3) B700(3) B701(3) B702(3) B703(3) B704(3)
 B705(3) B706(3) B707(3) B708(3) B709(3) B710(3) B711(3) B712(3) B713(3)
 B714(3) B715(3) B716(3) B717(3) B718(3) B719(3) B720(3) B721(3) B722(3)
 B723(3) B724(3) B725(3) B726(3) B727(3) B728(3) B729(3) B730(3) B731(3)
 B732(3) B733(3) B734(3) B735(3) B736(3) B737(3) B738(3) B739(3)
End
